Copyright (C) 2013-2015, Filipe Brandao
Build (method = -2)
  #dp: 131608
  Step-3' Graph: 1568 vertices and 67986 arcs (1.57s)
  Step-4' Graph: 1568 vertices and 67986 arcs (1.60s)
  #V4/#V3 = 1.00
  #A4/#A3 = 1.00
Ready! (1.60s)
Optimize a model with 1736 rows, 67987 columns and 200830 nonzeros
Coefficient statistics:
  Matrix range    [1e+00, 1e+00]
  Objective range [1e+00, 1e+00]
  Bounds range    [1e+00, 6e+00]
  RHS range       [1e+00, 6e+00]
Presolve removed 75 rows and 75 columns
Presolve time: 0.60s
Presolved: 1661 rows, 67912 columns, 200631 nonzeros
Variable types: 0 continuous, 67912 integer (52316 binary)
Optimize a model with 1661 rows, 67912 columns and 200631 nonzeros
Coefficient statistics:
  Matrix range    [1e+00, 2e+00]
  Objective range [1e+00, 1e+00]
  Bounds range    [1e+00, 3e+02]
  RHS range       [1e+00, 6e+01]
Presolve removed 2 rows and 2 columns
Presolved: 1659 rows, 67910 columns, 200629 nonzeros

Root barrier log...

Ordering time: 0.08s

Barrier statistics:
 AA' NZ     : 1.423e+05
 Factor NZ  : 5.907e+05 (roughly 30 MBytes of memory)
 Factor Ops : 2.966e+08 (less than 1 second per iteration)
 Threads    : 1

                  Objective                Residual
Iter       Primal          Dual         Primal    Dual     Compl     Time
   0   1.46116038e+04 -1.84515485e+05  2.34e+05 1.22e-01  5.06e+01     3s
   1   1.60823982e+03 -1.27861914e+05  3.86e+04 1.20e-01  8.97e+00     3s
   2   7.08004420e+02 -6.51951202e+04  7.40e+03 5.46e-02  1.98e+00     3s
   3   8.39461526e+02 -2.69456123e+04  8.82e+02 2.51e-02  3.70e-01     3s
   4   6.66868085e+02 -6.82285269e+03  1.57e+02 4.54e-03  8.12e-02     3s
   5   4.59592689e+02 -3.12135425e+03  3.62e+01 2.18e-03  3.24e-02     3s
   6   3.32692651e+02 -1.36183639e+03  1.52e+01 9.47e-04  1.50e-02     3s
   7   2.75780167e+02 -7.63158690e+02  1.06e+01 5.47e-04  9.29e-03     3s
   8   2.67176351e+02 -6.52875670e+02  1.00e+01 4.75e-04  8.28e-03     3s
   9   2.00697452e+02 -2.75261031e+02  5.83e+00 2.20e-04  4.27e-03     3s
  10   1.92023380e+02 -2.17024789e+02  5.37e+00 1.81e-04  3.68e-03     3s
  11   1.57293791e+02 -1.56237478e+02  3.81e+00 1.41e-04  2.74e-03     3s
  12   1.41688569e+02 -9.85525484e+01  3.14e+00 1.01e-04  2.09e-03     4s
  13   1.40204910e+02 -9.63284221e+01  3.06e+00 9.93e-05  2.05e-03     4s
  14   1.38463160e+02 -5.88970363e+01  3.00e+00 7.29e-05  1.73e-03     4s
  15   1.22973492e+02 -3.50779918e+01  2.20e+00 5.98e-05  1.35e-03     4s
  16   1.12956131e+02 -1.06308058e+01  1.82e+00 4.77e-05  1.05e-03     4s
  17   1.02714047e+02  2.69428917e+00  1.37e+00 3.99e-05  8.34e-04     4s
  18   9.40559735e+01  1.67599572e+01  1.05e+00 2.95e-05  6.35e-04     4s
  19   8.59285737e+01  2.89560623e+01  7.13e-01 2.15e-05  4.58e-04     4s
  20   8.16349751e+01  3.85820860e+01  5.47e-01 1.54e-05  3.42e-04     4s
  21   7.37761223e+01  4.75218497e+01  2.56e-01 9.98e-06  2.03e-04     4s
  22   6.92727624e+01  5.50356964e+01  1.22e-01 5.01e-06  1.09e-04     4s
  23   6.69020010e+01  5.94427552e+01  6.20e-02 2.19e-06  5.68e-05     4s
  24   6.62115600e+01  6.10731035e+01  4.71e-02 1.31e-06  3.91e-05     5s
  25   6.58011240e+01  6.15701989e+01  3.72e-02 1.02e-06  3.21e-05     5s
  26   6.57316155e+01  6.18575132e+01  3.43e-02 9.06e-07  2.94e-05     5s
  27   6.56073930e+01  6.19467416e+01  3.08e-02 8.62e-07  2.77e-05     5s
  28   6.55369891e+01  6.26123942e+01  2.69e-02 5.29e-07  2.21e-05     5s
  29   6.53531981e+01  6.31906517e+01  1.82e-02 2.39e-07  1.62e-05     5s
  30   6.52198803e+01  6.35209278e+01  1.12e-02 1.26e-09  1.27e-05     5s
  31   6.51761246e+01  6.38401606e+01  8.30e-03 4.14e-07  9.95e-06     5s
  32   6.51596315e+01  6.41386947e+01  7.22e-03 7.60e-08  7.59e-06     5s
  33   6.51381338e+01  6.43398493e+01  5.90e-03 2.45e-15  5.93e-06     5s
  34   6.51099533e+01  6.44490431e+01  4.26e-03 2.47e-15  4.90e-06     5s
  35   6.51042173e+01  6.44831529e+01  3.99e-03 2.64e-15  4.60e-06     5s
  36   6.50808685e+01  6.46343481e+01  2.89e-03 2.22e-15  3.31e-06     5s
  37   6.50746829e+01  6.47349865e+01  2.52e-03 2.13e-15  2.52e-06     6s
  38   6.50710060e+01  6.47811458e+01  2.31e-03 2.49e-15  2.15e-06     6s
  39   6.50656914e+01  6.48382522e+01  2.10e-03 2.28e-15  1.68e-06     6s
  40   6.50605122e+01  6.48464953e+01  1.91e-03 2.69e-15  1.58e-06     6s
  41   6.50453785e+01  6.48718544e+01  1.30e-03 2.46e-15  1.28e-06     6s
  42   6.50317714e+01  6.49077050e+01  8.97e-04 2.13e-15  9.17e-07     6s
  43   6.50262462e+01  6.49189942e+01  7.43e-04 2.44e-15  7.93e-07     6s
  44   6.50245180e+01  6.49281886e+01  6.90e-04 2.49e-15  7.12e-07     6s
  45   6.50224635e+01  6.49363461e+01  5.79e-04 2.66e-15  6.36e-07     6s
  46   6.50204481e+01  6.49423471e+01  5.03e-04 2.54e-15  5.77e-07     6s
  47   6.50170644e+01  6.49542968e+01  3.60e-04 2.53e-15  4.63e-07     6s
  48   6.50137384e+01  6.49643070e+01  2.58e-04 2.29e-15  3.65e-07     6s
  49   6.50115288e+01  6.49687438e+01  2.09e-04 2.63e-15  3.16e-07     7s
  50   6.50087970e+01  6.49734392e+01  1.45e-04 2.57e-15  2.61e-07     7s
  51   6.50074853e+01  6.49774113e+01  1.23e-04 3.25e-15  2.22e-07     7s
  52   6.50072243e+01  6.49802398e+01  1.10e-04 2.63e-15  1.99e-07     7s
  53   6.50057635e+01  6.49814199e+01  8.80e-05 2.86e-15  1.80e-07     7s
  54   6.50051538e+01  6.49857151e+01  7.75e-05 2.87e-15  1.43e-07     7s
  55   6.50043641e+01  6.49886946e+01  6.27e-05 2.61e-15  1.16e-07     7s
  56   6.50033298e+01  6.49908682e+01  4.01e-05 2.49e-15  9.19e-08     7s
  57   6.50031215e+01  6.49917663e+01  3.73e-05 2.52e-15  8.37e-08     7s
  58   6.50026361e+01  6.49923286e+01  3.06e-05 2.70e-15  7.60e-08     7s
  59   6.50023655e+01  6.49932450e+01  2.71e-05 2.94e-15  6.72e-08     7s
  60   6.50019506e+01  6.49933935e+01  2.20e-05 3.08e-15  6.31e-08     7s
  61   6.50015569e+01  6.49949973e+01  1.74e-05 2.70e-15  4.84e-08     8s
  62   6.50014503e+01  6.49955113e+01  1.63e-05 3.05e-15  4.38e-08     8s
  63   6.50012041e+01  6.49961580e+01  1.40e-05 2.82e-15  3.72e-08     8s
  64   6.50009764e+01  6.49966730e+01  1.05e-05 2.72e-15  3.17e-08     8s
  65   6.50008855e+01  6.49970577e+01  9.35e-06 2.49e-15  2.82e-08     8s
  66   6.50008561e+01  6.49974141e+01  9.01e-06 2.70e-15  2.54e-08     8s
  67   6.50007235e+01  6.49979116e+01  7.26e-06 2.49e-15  2.07e-08     8s
  68   6.50006127e+01  6.49984493e+01  5.69e-06 2.57e-15  1.59e-08     8s
  69   6.50004865e+01  6.49988559e+01  4.22e-06 2.74e-15  1.20e-08     8s
  70   6.50002736e+01  6.49992099e+01  2.30e-06 2.26e-15  7.84e-09     8s
  71   6.50002435e+01  6.49993327e+01  2.04e-06 2.26e-15  6.71e-09     8s
  72   6.50001861e+01  6.49994464e+01  1.57e-06 2.28e-15  5.45e-09     8s
  73   6.50000871e+01  6.49996004e+01  7.38e-07 2.26e-15  3.59e-09     9s
  74   6.50000418e+01  6.49998465e+01  3.77e-07 1.61e-15  1.44e-09     9s
  75   6.50000333e+01  6.49998988e+01  2.98e-07 1.89e-15  9.92e-10     9s
  76   6.50000152e+01  6.49999461e+01  1.33e-07 1.76e-15  5.10e-10     9s
  77   6.50000143e+01  6.49999619e+01  1.25e-07 1.83e-15  3.86e-10     9s
  78   6.50000078e+01  6.49999666e+01  6.78e-08 2.09e-15  3.03e-10     9s
  79   6.50000068e+01  6.49999957e+01  5.88e-08 1.63e-15  8.23e-11     9s
  80   6.50000005e+01  6.49999997e+01  4.17e-09 1.21e-15  6.43e-12     9s
  81   6.50000000e+01  6.50000000e+01  1.33e-10 1.35e-15  2.16e-13     9s
  82   6.50000000e+01  6.50000000e+01  3.53e-12 1.63e-15  2.16e-16     9s

Barrier solved model in 82 iterations and 9.31 seconds
Optimal objective 6.50000000e+01


Root crossover log...

     802 DPushes remaining with DInf 0.0000000e+00                 9s
       0 DPushes remaining with DInf 5.8172117e+00                 9s

   35981 PPushes remaining with PInf 0.0000000e+00                 9s
   19615 PPushes remaining with PInf 0.0000000e+00                10s
       0 PPushes remaining with PInf 0.0000000e+00                11s

  Push phase complete: Pinf 0.0000000e+00, Dinf 1.3766766e-14     11s


Root simplex log...

Iteration    Objective       Primal Inf.    Dual Inf.      Time
   36785    6.5000000e+01   0.000000e+00   0.000000e+00     11s
   36785    6.5000000e+01   0.000000e+00   0.000000e+00     11s

Root relaxation: objective 6.500000e+01, 36785 iterations, 8.71 seconds

    Nodes    |    Current Node    |     Objective Bounds      |     Work
 Expl Unexpl |  Obj  Depth IntInf | Incumbent    BestBd   Gap | It/Node Time

     0     0   65.00000    0  244          -   65.00000      -     -   11s
H    0     0                      67.0000000   65.00000  2.99%     -   13s
H    0     0                      66.0000000   65.00000  1.52%     -   24s
     0     0   65.00000    0  233   66.00000   65.00000  1.52%     -   28s
H    0     0                      65.0000000   65.00000  0.00%     -   48s

Cutting planes:
  MIR: 4

Explored 0 nodes (37905 simplex iterations) in 48.50 seconds
Thread count was 1 (of 4 available processors)

Optimal solution found (tolerance 0.00e+00)
Best objective 6.500000000000e+01, best bound 6.500000000000e+01, gap 0.0%
Preprocessing time: 1.84 seconds
Gurobi run time: 48.50 seconds
Total run time: 50.34 seconds
Objective: 65
Solution:
1 x [i=1, i=131, i=164]
1 x [i=2, i=130, i=163]
1 x [i=3, i=138, i=146, i=168]
1 x [i=4, i=124, i=167]
1 x [i=5, i=123, i=167]
1 x [i=6, i=129, i=159]
1 x [i=7, i=120, i=168]
1 x [i=8, i=128, i=161]
1 x [i=9, i=128, i=159]
1 x [i=10, i=126, i=160]
1 x [i=11, i=121, i=160]
1 x [i=12, i=125, i=155]
1 x [i=13, i=119, i=160]
1 x [i=14, i=114, i=165]
1 x [i=15, i=118, i=160]
1 x [i=16, i=127, i=144]
1 x [i=17, i=116, i=159]
1 x [i=18, i=117, i=156]
1 x [i=19, i=113, i=158]
1 x [i=20, i=112, i=158]
1 x [i=21, i=111, i=158]
1 x [i=22, i=110, i=157]
1 x [i=23, i=105, i=161]
1 x [i=24, i=104, i=163]
1 x [i=25, i=115, i=157, i=160]
1 x [i=26, i=109, i=152]
1 x [i=27, i=107, i=152]
1 x [i=28, i=100, i=163]
1 x [i=29, i=103, i=154]
1 x [i=30, i=101, i=153]
1 x [i=31, i=97, i=163]
1 x [i=32, i=99, i=153]
1 x [i=33, i=98, i=151]
1 x [i=34, i=108, i=136]
1 x [i=35, i=96, i=150]
1 x [i=36, i=95, i=150]
1 x [i=37, i=94, i=149]
1 x [i=38, i=93, i=150]
1 x [i=39, i=92, i=148]
1 x [i=40, i=90, i=147]
1 x [i=41, i=89, i=146]
1 x [i=42, i=88, i=145]
1 x [i=43, i=87, i=144]
1 x [i=44, i=83, i=156]
1 x [i=45, i=84, i=143]
1 x [i=46, i=85, i=137]
1 x [i=47, i=80, i=157]
1 x [i=48, i=102, i=106, i=166]
1 x [i=49, i=82, i=142]
1 x [i=50, i=81, i=141]
1 x [i=51, i=79, i=142]
1 x [i=52, i=78, i=140]
1 x [i=53, i=77, i=139]
1 x [i=54, i=73, i=151]
1 x [i=55, i=72, i=162]
1 x [i=56, i=75, i=158, i=160]
1 x [i=57, i=70, i=156]
1 x [i=58, i=76, i=122]
1 x [i=59, i=71, i=135]
1 x [i=60, i=74, i=122]
1 x [i=61, i=68, i=133]
1 x [i=62, i=67, i=132]
1 x [i=63, i=65, i=133]
1 x [i=64, i=66, i=132]
1 x [i=69, i=86, i=91, i=134, i=143, i=150]
